30
0 1 0.68 0.32
0 2 0.56 0.19
0 3 0.67 0.3
0 4 0.72 0.22
0 5 0.66 0.28
0 6 0.36 0.24
0 7 0.36 0.24
0 8 0.6 0.27
0 9 0.5 0.16
0 10 0.69 0.17
0 11 0.37 0.32
0 12 0.6 0.39
0 13 0.76 0.33
0 14 0.62 0.25
0 15 0.39 0.24
0 16 0.46 0.24
0 17 0.49 0.28
0 18 0.64 0.34
0 19 0.76 0.27
0 20 0.68 0.36
0 21 0.55 0.29
0 22 0.66 0.41
0 23 0.54 0.3
0 24 0.46 0.28
0 25 0.58 0.32
0 26 0.24 0.12
0 27 0.82 0.27
0 28 0.7 0.1
0 29 0.44 0.2
1 2 0.72 0.33
1 3 0.6 0.11
1 4 0.56 0.18
1 5 0.7 0.28
1 6 0.68 0.38
1 7 0.32 0.18
1 8 0.58 0.35
1 9 0.57 0.35
1 10 0.32 0.26
1 11 0.46 0.32
1 12 0.73 0.21
1 13 0.21 0.1
1 14 0.74 0.3
1 15 0.46 0.27
1 16 0.64 0.27
1 17 0.54 0.32
1 18 0.6 0.2
1 19 0.72 0.31
1 20 0.68 0.13
1 21 0.78 0.31
1 22 0.58 0.36
1 23 0.65 0.28
1 24 0.42 0.24
1 25 0.78 0.31
1 26 0.73 0.28
1 27 0.52 0.26
1 28 0.8 0.3
1 29 0.68 0.23
2 3 0.66 0.3
2 4 0.54 0.18
2 5 0.77 0.28
2 6 0.69 0.27
2 7 0.62 0.25
2 8 0.84 0.08
2 9 0.51 0.14
2 10 0.48 0.32
2 11 0.47 0.17
2 12 0.7 0.2
2 13 0.51 0.23
2 14 0.36 0.06
2 15 0.4 0.06
2 16 0.7 0.18
2 17 0.42 0.09
2 18 0.5 0.39
2 19 0.7 0.3
2 20 0.84 0.2
2 21 0.49 0.1
2 22 0.67 0.22
2 23 0.48 0.2
2 24 0.52 0.18
2 25 0.54 0.2
2 26 0.78 0.28
2 27 0.74 0.22
2 28 0.5 0.09
2 29 0.7 0.31
3 4 0.63 0.28
3 5 0.59 0.26
3 6 0.46 0.27
3 7 0.54 0.29
3 8 0.64 0.32
3 9 0.39 0.34
3 10 0.66 0.3
3 11 0.62 0.28
3 12 0.42 0.1
3 13 0.81 0.21
3 14 0.62 0.34
3 15 0.28 0.26
3 16 0.39 0.16
3 17 0.64 0.35
3 18 0.48 0.26
3 19 0.67 0.2
3 20 0.52 0.22
3 21 0.68 0.2
3 22 0.44 0.32
3 23 0.25 0.17
3 24 0.56 0.25
3 25 0.81 0.27
3 26 0.58 0.25
3 27 0.34 0.22
3 28 0.6 0.38
3 29 0.3 0.28
4 5 0.68 0.32
4 6 0.72 0.2
4 7 0.46 0.34
4 8 0.33 0.26
4 9 0.64 0.18
4 10 0.57 0.15
4 11 0.72 0.14
4 12 0.62 0.3
4 13 0.55 0.21
4 14 0.18 0.12
4 15 0.67 0.24
4 16 0.61 0.22
4 17 0.55 0.22
4 18 0.56 0.32
4 19 0.56 0.21
4 20 0.48 0.18
4 21 0.51 0.28
4 22 0.66 0.33
4 23 0.62 0.14
4 24 0.26 0.06
4 25 0.4 0.28
4 26 0.51 0.1
4 27 0.54 0.25
4 28 0.39 0.12
4 29 0.33 0.21
5 6 0.69 0.32
5 7 0.92 0.41
5 8 0.66 0.36
5 9 0.69 0.28
5 10 0.38 0.17
5 11 0.43 0.31
5 12 0.64 0.27
5 13 0.69 0.18
5 14 0.58 0.28
5 15 0.7 0.29
5 16 0.2 0.1
5 17 0.64 0.29
5 18 0.4 0.16
5 19 0.72 0.27
5 20 0.58 0.15
5 21 0.66 0.18
5 22 0.64 0.39
5 23 0.74 0.34
5 24 0.42 0.32
5 25 0.46 0.19
5 26 0.42 0.22
5 27 0.26 0.16
5 28 0.77 0.23
5 29 0.36 0.33
6 7 0.72 0.44
6 8 0.54 0.32
6 9 0.45 0.3
6 10 0.9 0.27
6 11 0.48 0.28
6 12 0.44 0.17
6 13 0.54 0.32
6 14 0.54 0.21
6 15 0.56 0.33
6 16 0.53 0.28
6 17 0.57 0.2
6 18 0.66 0.35
6 19 0.73 0.23
6 20 0.52 0.29
6 21 0.7 0.27
6 22 0.85 0.39
6 23 0.66 0.22
6 24 0.68 0.14
6 25 0.44 0.13
6 26 0.6 0.3
6 27 0.48 0.18
6 28 0.34 0.3
6 29 0.54 0.28
7 8 0.26 0.17
7 9 0.82 0.39
7 10 0.64 0.41
7 11 0.65 0.33
7 12 0.7 0.39
7 13 0.53 0.28
7 14 0.64 0.31
7 15 0.75 0.31
7 16 0.75 0.31
7 17 0.5 0.32
7 18 0.54 0.38
7 19 0.74 0.46
7 20 0.62 0.31
7 21 0.58 0.35
7 22 0.3 0.28
7 23 0.63 0.22
7 24 0.58 0.3
7 25 0.69 0.39
7 26 0.6 0.36
7 27 0.77 0.41
7 28 0.66 0.34
7 29 0.66 0.41
8 9 0.56 0.22
8 10 0.48 0.38
8 11 0.39 0.25
8 12 0.44 0.28
8 13 0.79 0.31
8 14 0.51 0.14
8 15 0.67 0.14
8 16 0.62 0.26
8 17 0.6 0.17
8 18 0.66 0.47
8 19 0.74 0.36
8 20 0.58 0.28
8 21 0.6 0.18
8 22 0.48 0.14
8 23 0.48 0.28
8 24 0.46 0.26
8 25 0.61 0.28
8 26 0.6 0.36
8 27 0.66 0.3
8 28 0.4 0.17
8 29 0.62 0.39
9 10 0.52 0.2
9 11 0.68 0.16
9 12 0.65 0.28
9 13 0.56 0.25
9 14 0.46 0.2
9 15 0.11 0.08
9 16 0.49 0.18
9 17 0.47 0.12
9 18 0.69 0.4
9 19 0.28 0.24
9 20 0.61 0.22
9 21 0.53 0.18
9 22 0.65 0.26
9 23 0.42 0.22
9 24 0.58 0.24
9 25 0.52 0.24
9 26 0.51 0.25
9 27 0.55 0.25
9 28 0.64 0.06
9 29 0.45 0.3
10 11 0.78 0.29
10 12 0.72 0.22
10 13 0.53 0.16
10 14 0.72 0.26
10 15 0.62 0.28
10 16 0.58 0.16
10 17 0.81 0.23
10 18 0.78 0.27
10 19 0.76 0.1
10 20 0.66 0.19
10 21 0.78 0.24
10 22 0.53 0.24
10 23 0.67 0.27
10 24 0.46 0.19
10 25 0.66 0.15
10 26 0.47 0.05
10 27 0.5 0.1
10 28 0.63 0.26
10 29 0.36 0.26
11 12 0.52 0.33
11 13 0.67 0.33
11 14 0.61 0.23
11 15 0.57 0.23
11 16 0.23 0.21
11 17 0.21 0.08
11 18 0.42 0.37
11 19 0.69 0.35
11 20 0.64 0.32
11 21 0.58 0.27
11 22 0.46 0.38
11 23 0.71 0.11
11 24 0.73 0.19
11 25 0.32 0.26
11 26 0.38 0.24
11 27 0.68 0.21
11 28 0.5 0.22
11 29 0.54 0.14
12 13 0.52 0.15
12 14 0.78 0.26
12 15 0.54 0.26
12 16 0.56 0.22
12 17 0.71 0.25
12 18 0.35 0.29
12 19 0.61 0.27
12 20 0.14 0.12
12 21 0.26 0.1
12 22 0.53 0.22
12 23 0.67 0.27
12 24 0.56 0.31
12 25 0.65 0.17
12 26 0.57 0.27
12 27 0.61 0.12
12 28 0.56 0.29
12 29 0.68 0.36
13 14 0.62 0.29
13 15 0.67 0.17
13 16 0.52 0.27
13 17 0.71 0.3
13 18 0.62 0.17
13 19 0.84 0.26
13 20 0.48 0.03
13 21 0.78 0.25
13 22 0.79 0.27
13 23 0.86 0.35
13 24 0.63 0.27
13 25 0.7 0.22
13 26 0.52 0.21
13 27 0.73 0.17
13 28 0.59 0.31
13 29 0.6 0.27
14 15 0.57 0.12
14 16 0.6 0.18
14 17 0.4 0.15
14 18 0.74 0.33
14 19 0.71 0.31
14 20 0.66 0.26
14 21 0.69 0.16
14 22 0.48 0.21
14 23 0.48 0.26
14 24 0.44 0.18
14 25 0.58 0.21
14 26 0.42 0.22
14 27 0.61 0.16
14 28 0.57 0.15
14 29 0.51 0.33
15 16 0.6 0.24
15 17 0.36 0.15
15 18 0.58 0.34
15 19 0.39 0.32
15 20 0.58 0.14
15 21 0.42 0.16
15 22 0.67 0.28
15 23 0.53 0.18
15 24 0.58 0.24
15 25 0.56 0.26
15 26 0.62 0.33
15 27 0.44 0.28
15 28 0.74 0.14
15 29 0.34 0.29
16 17 0.44 0.23
16 18 0.6 0.26
16 19 0.52 0.25
16 20 0.66 0.24
16 21 0.53 0.28
16 22 0.69 0.39
16 23 0.64 0.32
16 24 0.62 0.28
16 25 0.42 0.15
16 26 0.22 0.12
16 27 0.45 0.1
16 28 0.6 0.22
16 29 0.32 0.24
17 18 0.63 0.3
17 19 0.48 0.28
17 20 0.57 0.27
17 21 0.54 0.19
17 22 0.66 0.31
17 23 0.5 0.19
17 24 0.73 0.27
17 25 0.53 0.18
17 26 0.53 0.28
17 27 0.79 0.13
17 28 0.71 0.18
17 29 0.53 0.22
18 19 0.7 0.32
18 20 0.49 0.2
18 21 0.54 0.34
18 22 0.58 0.44
18 23 0.73 0.34
18 24 0.5 0.32
18 25 0.72 0.22
18 26 0.4 0.22
18 27 0.64 0.17
18 28 0.48 0.34
18 29 0.76 0.43
19 20 0.47 0.29
19 21 0.61 0.34
19 22 0.74 0.34
19 23 0.42 0.24
19 24 0.3 0.16
19 25 0.42 0.1
19 26 0.74 0.15
19 27 0.62 0.15
19 28 0.64 0.3
19 29 0.58 0.34
20 21 0.4 0.22
20 22 0.55 0.24
20 23 0.67 0.32
20 24 0.66 0.24
20 25 0.51 0.19
20 26 0.46 0.24
20 27 0.47 0.14
20 28 0.7 0.28
20 29 0.73 0.24
21 22 0.54 0.32
21 23 0.66 0.3
21 24 0.46 0.28
21 25 0.72 0.26
21 26 0.31 0.19
21 27 0.86 0.21
21 28 0.45 0.19
21 29 0.51 0.41
22 23 0.56 0.42
22 24 0.54 0.39
22 25 0.78 0.26
22 26 0.65 0.29
22 27 0.58 0.31
22 28 0.62 0.31
22 29 0.74 0.48
23 24 0.36 0.08
23 25 0.84 0.3
23 26 0.59 0.24
23 27 0.59 0.32
23 28 0.64 0.26
23 29 0.55 0.25
24 25 0.66 0.22
24 26 0.55 0.16
24 27 0.68 0.27
24 28 0.52 0.18
24 29 0.59 0.18
25 26 0.64 0.2
25 27 0.7 0.05
25 28 0.42 0.29
25 29 0.61 0.39
26 27 0.58 0.15
26 28 0.76 0.22
26 29 0.54 0.31
27 28 0.51 0.31
27 29 0.6 0.34
28 29 0.7 0.3
